23-31-77-81-6-25-8-60-28-48-45-17-36-91-9-98-18-62-50-15-43-83-51-10-47-65-95-86-96-80-44-32-13-35-56-73-99-68-92-3-59-39-11-0-14-78-19-63-41-54-79-64-76-67-29-40-72-2-58-88-20-69-75-90-22-34-1-61-82-71-49-94-93-85-4-42-55-70-37-38-27-87-97-57-33-24-89-16-7-21-74-5-53-46-66-30-12-26-84-52 27329